c t mc
c file mc2022_track1_009.cnf
p cnf 56 288
-53 41 -4 5 33 0
-5 33 44 -8 21 0
38 20 28 -6 15 0
-52 29 -36 -26 17 0
1 -47 -7 10 22 0
56 12 -32 -42 2 0
-10 -22 -34 -40 -16 0
-11 45 39 27 -48 0
-11 -45 -39 -27 48 0
-42 -2 -46 -11 45 0
-38 20 28 6 15 0
-53 41 4 5 -33 0
-42 2 46 11 -45 0
49 -30 -24 -52 29 0
43 -37 50 54 -19 0
27 -48 -3 31 -55 0
53 41 4 -5 -33 0
-56 12 -32 -42 -2 0
52 29 -36 26 17 0
11 -45 39 27 -48 0
-8 21 -18 -49 -30 0
-52 29 36 26 17 0
-27 48 3 -31 -55 0
-49 -30 24 -52 29 0
56 -12 -32 -42 -2 0
8 21 18 -49 -30 0
-6 15 -25 -1 47 0
-1 47 -7 -10 -22 0
27 48 -3 31 55 0
49 -30 -24 52 -29 0
-52 29 -36 26 -17 0
-53 -41 4 -5 -33 0
42 2 46 11 45 0
5 -33 -44 8 21 0
-56 -12 -32 -42 2 0
49 30 24 52 -29 0
-31 55 -23 -38 -20 0
6 15 25 -1 47 0
-38 -20 -28 6 15 0
-31 -55 23 38 20 0
-31 -55 -23 -38 20 0
42 -2 -46 -11 -45 0
-38 20 28 -6 -15 0
-26 -17 -51 56 -12 0
43 -37 -50 -54 -19 0
43 37 -50 -54 19 0
-26 -17 51 -56 -12 0
26 17 51 56 12 0
31 55 23 38 20 0
-6 -15 -25 1 47 0
-40 -16 14 -35 -9 0
-35 -9 -13 43 37 0
-43 37 -50 54 19 0
-27 -48 3 31 -55 0
-49 -30 -24 52 29 0
10 -22 34 40 16 0
53 41 -4 5 -33 0
-35 -9 13 43 -37 0
-10 -22 34 40 -16 0
-27 48 3 31 55 0
-27 -48 3 -31 55 0
-5 33 44 8 -21 0
43 37 -50 54 -19 0
-8 21 18 -49 30 0
11 45 39 -27 -48 0
49 -30 24 -52 -29 0
52 -29 -36 -26 17 0
-10 22 -34 40 -16 0
27 -48 3 -31 -55 0
40 -16 -14 -35 -9 0
-49 -30 24 52 -29 0
8 21 18 49 30 0
-38 -20 28 6 -15 0
-6 -15 25 1 -47 0
5 -33 -44 -8 -21 0
-11 45 -39 -27 -48 0
1 -47 7 -10 22 0
52 -29 36 -26 -17 0
-40 16 -14 35 9 0
42 -2 46 -11 45 0
43 -37 -50 54 19 0
27 -48 3 31 55 0
52 29 -36 -26 -17 0
-1 -47 -7 10 -22 0
-42 -2 46 -11 -45 0
-52 -29 36 -26 17 0
35 -9 -13 43 -37 0
-1 -47 -7 -10 22 0
-38 -20 -28 -6 -15 0
-42 2 46 -11 45 0
-31 -55 -23 38 -20 0
-6 15 -25 1 -47 0
35 9 -13 -43 -37 0
-1 47 7 -10 22 0
-8 21 18 49 -30 0
-35 9 13 -43 -37 0
-5 -33 -44 8 -21 0
10 -22 -34 -40 16 0
-5 -33 44 -8 -21 0
40 16 -14 35 -9 0
-8 -21 18 -49 -30 0
26 -17 51 -56 12 0
-10 -22 34 -40 16 0
11 -45 -39 -27 -48 0
-42 -2 -46 11 -45 0
42 -2 46 11 -45 0
-35 -9 -13 -43 -37 0
26 17 -51 56 -12 0
53 -41 4 -5 33 0
31 -55 23 38 -20 0
31 55 -23 38 -20 0
38 20 28 6 -15 0
49 30 24 -52 29 0
-38 20 -28 -6 15 0
-52 -29 -36 -26 -17 0
11 45 -39 27 -48 0
-27 -48 -3 31 55 0
56 -12 -32 42 2 0
-6 -15 -25 -1 -47 0
52 -29 -36 26 -17 0
31 55 -23 -38 20 0
-56 12 32 42 -2 0
35 -9 -13 -43 37 0
-52 -29 -36 26 17 0
-27 48 -3 -31 55 0
42 2 46 -11 -45 0
-1 47 -7 10 22 0
5 33 -44 -8 21 0
-56 12 32 -42 2 0
52 -29 36 26 17 0
43 -37 50 -54 19 0
10 22 -34 -40 -16 0
56 -12 32 42 -2 0
35 9 13 -43 37 0
-43 -37 50 -54 -19 0
-40 16 14 -35 9 0
6 -15 25 1 47 0
-35 9 -13 -43 37 0
-1 -47 7 -10 -22 0
-1 47 7 10 -22 0
31 -55 -23 -38 -20 0
-43 -37 50 54 19 0
-5 -33 44 8 21 0
6 15 25 1 -47 0
31 55 23 -38 -20 0
8 21 -18 49 -30 0
-8 -21 18 49 30 0
5 33 44 8 21 0
-40 -16 -14 35 -9 0
-49 30 24 -52 -29 0
38 -20 -28 -6 15 0
53 41 -4 -5 33 0
-26 -17 51 56 12 0
56 12 32 42 2 0
10 -22 34 -40 -16 0
-26 17 51 56 -12 0
8 -21 18 -49 30 0
53 -41 4 5 -33 0
1 -47 -7 -10 -22 0
35 9 13 43 -37 0
-52 -29 36 26 -17 0
-40 -16 14 35 9 0
5 33 -44 8 -21 0
42 -2 -46 11 45 0
53 -41 -4 5 33 0
-49 30 -24 -52 29 0
-11 45 -39 27 48 0
-31 -55 23 -38 -20 0
-42 2 -46 11 45 0
53 -41 -4 -5 -33 0
-43 -37 -50 -54 19 0
11 45 39 27 48 0
8 -21 18 49 -30 0
6 15 -25 1 47 0
-6 15 25 -1 -47 0
1 47 7 10 22 0
8 21 -18 -49 30 0
-40 -16 -14 -35 9 0
49 -30 24 52 29 0
-38 -20 28 -6 15 0
31 -55 23 -38 20 0
53 41 4 5 33 0
42 2 -46 11 -45 0
11 45 -39 -27 48 0
27 48 3 -31 55 0
-26 -17 -51 -56 12 0
27 48 -3 -31 -55 0
-10 22 -34 -40 16 0
-52 29 36 -26 -17 0
-53 -41 -4 -5 33 0
5 33 44 -8 -21 0
-53 -41 -4 5 -33 0
-31 55 23 -38 20 0
-49 -30 -24 -52 -29 0
40 16 -14 -35 9 0
52 29 36 -26 17 0
40 16 14 -35 -9 0
40 16 14 35 9 0
-43 37 50 54 -19 0
-11 -45 39 27 48 0
27 48 3 31 -55 0
1 47 7 -10 -22 0
-6 15 25 1 47 0
-49 30 24 52 29 0
40 -16 14 35 -9 0
-8 -21 -18 -49 30 0
-42 2 -46 -11 -45 0
26 -17 -51 -56 -12 0
26 -17 -51 56 12 0
6 -15 -25 1 -47 0
-53 41 -4 -5 -33 0
-6 -15 25 -1 47 0
38 20 -28 -6 -15 0
-11 -45 39 -27 -48 0
-10 -22 -34 40 16 0
-5 33 -44 -8 -21 0
1 -47 7 10 -22 0
40 -16 -14 35 9 0
-10 22 34 -40 -16 0
-43 37 50 -54 19 0
26 17 -51 -56 12 0
-56 -12 32 42 2 0
-10 22 34 40 16 0
38 -20 28 -6 -15 0
-42 -2 46 11 45 0
8 -21 -18 49 30 0
-35 -9 13 -43 37 0
-31 55 -23 38 20 0
10 22 34 40 -16 0
49 30 -24 -52 -29 0
-38 20 -28 6 -15 0
38 -20 -28 6 -15 0
-43 37 -50 -54 -19 0
56 12 -32 42 -2 0
-53 -41 4 5 33 0
-8 -21 -18 49 -30 0
6 -15 -25 -1 47 0
31 -55 -23 38 20 0
-26 17 -51 56 12 0
35 9 -13 43 37 0
38 20 -28 6 15 0
27 -48 -3 -31 55 0
-27 -48 -3 -31 -55 0
-26 17 -51 -56 -12 0
-56 -12 32 -42 -2 0
11 -45 39 -27 48 0
1 47 -7 -10 22 0
43 37 50 -54 -19 0
10 22 -34 40 16 0
8 -21 -18 -49 -30 0
38 -20 28 6 15 0
-27 48 -3 31 -55 0
40 -16 14 -35 9 0
-5 -33 -44 -8 21 0
-11 45 39 -27 48 0
-5 33 -44 8 21 0
35 -9 13 -43 -37 0
10 -22 -34 40 -16 0
1 47 -7 10 -22 0
5 -33 44 -8 21 0
49 30 -24 52 29 0
-43 -37 -50 54 -19 0
10 22 34 -40 16 0
-35 9 -13 43 -37 0
26 17 51 -56 -12 0
26 -17 51 56 -12 0
-35 9 13 43 37 0
-40 16 -14 -35 -9 0
6 15 -25 -1 -47 0
-56 -12 -32 42 -2 0
52 29 36 26 -17 0
-49 30 -24 52 -29 0
5 -33 44 8 -21 0
-31 55 23 38 -20 0
-40 16 14 35 -9 0
-56 12 -32 42 2 0
43 37 50 54 19 0
-11 -45 -39 27 -48 0
-26 17 51 -56 12 0
-53 41 4 -5 33 0
-8 21 -18 49 30 0
56 12 32 -42 -2 0
35 -9 13 43 37 0
6 -15 25 -1 -47 0
56 -12 32 -42 2 0
42 2 -46 -11 45 0
-1 -47 7 10 22 0
11 -45 -39 27 48 0
